0 61392 
1 60626 
2 59946 
3 57872 
4 55906 
5 55808 
6 54768 
7 53124 
8 48586 
9 47576 
10 47526 
11 47518 
12 46346 
13 46268 
14 45786 
15 45356 
16 45336 
17 44554 
18 44506 
19 44020 
20 42910 
21 42054 
22 41398 
23 41370 
24 40100 
25 38236 
26 37242 
27 35802 
28 34596 
29 34490 
30 34368 
31 33462 
32 31844 
33 31564 
34 31194 
35 30846 
36 30806 
37 28168 
38 28016 
39 27844 
40 27810 
41 27734 
42 27614 
43 27344 
44 27296 
45 27116 
46 26924 
47 25604 
48 24052 
49 23634 
50 23382 
51 22624 
52 22606 
53 21376 
54 20892 
55 20880 
56 19508 
57 19310 
58 16640 
59 16632 
60 15844 
61 15742 
62 15690 
63 15668 
64 14452 
65 13300 
66 13028 
67 11310 
68 11198 
69 11198 

